# Solution for model r5_t18_m0_1
# Finished Task: 18 / 18
# Makespan: 401.0, Total Distance: 376.0, Total Time: 23.2626
# R O S F
0 0 20 0.0 0.0
1 1 14 0.0 0.0
2 2 8 0.0 0.0
3 3 11 0.0 0.0
4 4 19 0.0 0.0
5 2 -1 380.0 401.0
6 4 -1 371.0 401.0
7 3 21 240.0 268.0
8 2 10 239.0 270.0
9 1 18 107.0 146.0
10 2 5 310.0 349.0
11 3 7 176.0 214.0
12 1 -1 365.0 401.0
13 1 22 214.0 253.0
14 1 9 66.0 97.0
15 0 -1 338.0 368.0
16 0 15 186.0 214.0
17 0 16 125.0 158.0
18 1 13 165.0 188.0
19 4 6 202.0 235.0
20 0 17 31.0 64.0
21 3 -1 371.0 401.0
22 1 12 277.0 310.0
